certificates/rado_a15_c103_N32.drat
-30 -32 0
d -30 -7 -32 0
7 -31 -32 0
-8 -1 -7 0
-31 -32 0
d 7 -31 -32 0
8 -7 30 0
-7 30 0
d 8 -7 30 0
-32 0
-8 7 0
7 0
-5 0
-9 0
30 0
4 0
-28 0
-2 0
-6 0
15 0
18 0
19 0
22 0
-17 0
-13 0
-20 0
-16 0
-21 0
-24 0
26 0
29 0
3 0
8 0
11 0
-31 0
-27 0
-12 0
-1 0
-10 0
-25 0
14 0
0
